NAME: rbg094a.sop
TYPE: SOP
COMMENT: Stacker crane application (Norbert Ascheuer)
DIMENSION: 96
EDGE_WEIGHT_TYPE: EXPLICIT
EDGE_WEIGHT_FORMAT: FULL_MATRIX 
EDGE_WEIGHT_SECTION
  96
   0   0   0   0   0   0   0   0   0   0   0   0   0   0   0   0   0   0   0   0   0   0   0   0   0   0   0   0   0   0   0   0   0   0   0   0   0   0   0   0   0   0   0   0   0   0   0   0   0   0   0   0   0   0   0   0   0   0   0   0   0   0   0   0   0   0   0   0   0   0   0   0   0   0   0   0   0   0   0   0   0   0   0   0   0   0   0   0   0   0   0   0   0   0   0 1000000
  -1   0  24  24  23  24  11  24  24  24  10  24  12  11  24  24  15  12  12  24  10  16  23  10  24  12  10  15  24  24  24  24  24  24  24  24  12  24  24  20  24  24  24  24  24  24  24  24  24  24  24  11  24  24  24  20  24  20  16  24  24  24  24  16  12  23  12  24  24  24  24  24  11  24  24  24  24  24  23  24  14  16  24  10  24  24  24  24  18  15  24  18  24  23  12   0
  -1  27   0  27  25  27  12  27  27  27  14  27  12  12  27  27  23  21  20  27  14  23  26  14  27  20  15   0  27  27  27  27  27  27  27  27  20  27  27  12  27  27  27  27  27  27  27  27  27  27  27  12  27  27  27  12  27  13  23  27  27  27  27  23  21  26  21  27  27  27  18  27  12  27  27  27  27  27  14  27  10  10  27  16  27  27  27  27  11   6  27  13  27  26  20   0
  -1  23  23   0  20  23  14  23  23  23  12  23  15  14  23  23  12  10   8  23  12  12  21  12  23   5  12  20  23  23  23  23  23  23  23  23  11  23  23  23  23  23  23  23  23  23  23  23  23  23  23  14  23  23  23  23  23  23  12  23  23  23  23  12  10  21  10  23  23  23  25  23  14  23  23  23  23  23  24  23  18  21  23  11  23  23  23  23  23  20  23  23  23  21  14   0
  -1   0   0   0   0   0  24   0   0   0  24   0  25  24   0   0  18  21  23   0  24  16  10  24   0  23  24  27   0   0   0   0   0   0   0   0  23   0   0  28   0   0   0   0   0   0   0   0   0   0   0  24   0   0   0  28   0  28  16   0   0   0   0  16  21  10  21   0   0   0  31   0  24   0   0   0   0   0  30   0  26  27   0  23   0   0   0   0  28  27   0  28   0  10  23   0
  -1  23  23  23  20   0  14  23  23  23  12  23  15  14  23  23  12  10   3  23  12  12  21  12  23   6  12  20  23  23  23  23  23  23  23  23   0  23  23  23  23  23  23  23  23  23  23  23  23  23  23  14  23  23  23  23  23  23  12  23  23  23  23  12  10  21  10  23  23  23  25  23  14  23  23  23  23  23  24  23  18  21  23  11  23  23  23  23  23  20  23  23  23  21   2   0
  -1  16  16  16  14  16   0  16  16  16  18  16  21  20  16  16  10  12  12  16  18   6  15  18  16  12  16  23  16  16  16  16  16  16  16  16  12  16  16  24  16  16  16  16  16  16  16  16  16  16  16  20  16  16  16  24  16  24   5  16  16  16  16   9  12  15  12  16  16  16  27  16  20  16  16  16  16  16  25  16  23  24  16  15  16  16  16  16  24  23  16  24  16  15  14   0
  -1  27  27  27  26  27  14   0  27  27  15  27  12  14  27  27  23  23  21  27  15  24  27  15  27  21  16  10  27  27  27  27  27  27  27  27  21  27  27  11  27  27  27  27  27  27  27  27  27  27  27  14  27  27  27  11  27  11  24  27  27  27  27  24  23  27  23  27  27  27  16  27  14  27  27  27  27  27  12  27  11   9  27  18  27  27  27  27  10  10  27  10  27  27  21   0
  -1  18  18  18  15  18  18  18   0  18  16  18  20  18  18  18   2  11  12  18  16  10  16  16  18  12  15  23  18  18  18  18  18  18  18  18  12  18  18  24  18  18  18  18  18  18  18  18  18  18  18  18  18  18  18  24  18  24  10  18  18  18  18  10  11  16  11  18  18  18  27  18  18  18  18  18  18  18  25  18  23  23  18  14  18  18  18  18  24  23  18  24  18  16  12   0
  -1  23  23  23  21  23  12  23  23   0  12  23  14  12  23  23  12  11  10  23  12  14  23  12  23  10  11  18  23  23  23  23  23  23  23  23  10  23  23  23  23  23  23  23  23  23  23  23  23  23  23  12  23  23  23  23  23  23  14  23  23  23  23  14  11  23  11  23  23  23  24  23  12  23  23  23  23  23  23  23  16  20  23  10  23  23  23  23  21  18  23  21  23  23  10   0
  -1   0   0   0  11   0  24   0   0   0   0   0  25  24   0   0  18  21  23   0  24  16  10  24   0  23  24  27   0   0   0   0   0   0   0   0  23   0   0  28   0   0   0   0   0   0   0   0   0   0   0  24   0   0   0  28   0  28  16   0   0   0   0  16  21  10  21   0   0   0  31   0  24   0   0   0   0   0  30   0  26  27   0  23   0   0   0   0  28  27   0  28   0  10  23   0
  -1  28  28  28  27  28  15  28  28  28  16   0  14  15  28  28  24  23  23  28  16  24  27  16  28  23  18  11  28  28  28  28  28  28  28  28  23  28  28  10  28  28  28  28  28  28  28  28  28  28  28  15  28  28  28  10  28  12  24  28  28  28  28  24  23  27  23  28  28  28  15  28  15  28  28  28  28  28  12  28  12  10  28  20  28  28  28  28   8  11  28  12  28  27  23   0
  -1  -1  -1  25  24  25  10  25  25  25  11  25   0  10  25  25  20  16  15  25  11  21  24  11  25  15  12  12  25  25  25  25  25  25  25  25  15  25  25  15  25  25  25  25  25  25  25  25  25  25  25  10  25  25  25  15  25  18  21  25  25  25  25  21  16  24  16  25  25  25  23  25  10  25  25  25  25  25  18  25  11  12  25  12  25  25  25  25  14  12  25  18  25  24  15   0
  -1  23  23  23  20  23  14  23  23  23  12  23  15   0  23  23  12  10   6  23  12  12  21  12  23   4  12  20  23  23  23  23  23  23  23  23  10  23  23  23  23  23  23  23  23  23  23  23  23  23  23  14  23  23  23  23  23  23  12  23  23  23  23  12  10  21  10  23  23  23  25  23  14  23  23  23  23  23  24  23  18  21  23  11  23  23  23  23  23  20  23  23  23  21  12   0
  -1  -1  -1  -1  -1  18  18  18  18  18  16  18  20  18   0  18   3  11  12  18  16  10  16  16  18  12  15  23  18  18  18  18  18  18  18  18  12  18  18  24  18  18  18  18  18  18  18  18  18  18  18  18  18  18  18  24  18  24  10  18  18  18  18  10  11  16  11  18  18  18  27  18  18  18  18  18  18  18  25  18  23  23  18  14  18  18  18  18  24  23  18  24  18  16  12   0
  -1  -1  -1  -1  -1  -1  -1  28  28  28  16  28  14  -1  28   0  24  23  23  28  16  24  27  16  28  23  18  11  28  28  28  28  28  28  28  28  23  28  28  10  28  28  28  28  28  28  28  28  28  28  28  15  28  28  28  10  28  12  24  28  28  28  28  24  23  27  23  28  28  28  15  28  15  28  28  28  28  28  12  28  12  10  28  20  28  28  28  28   8  11  28  12  28  27  23   0
  -1  -1  18  18  15  18  18  18  18  18  16  18  20  18  18  18   0  11  12  18  16  10  16  16  18  12  15  23  18  18  18  18  18  18  18  18  12  18  18  24  18  18  18  18  18  18  18  18  18  18  18  18  18  18  18  24  18  24  10  18  18  18  18  10  11  16  11  18  18  18  27  18  18  18  18  18  18  18  25  18  23  23  18  14  18  18  18  18  24  23  18  24  18  16  12   0
  -1  -1  -1  -1  -1  -1  -1  -1  21  21  14  21  16  -1  21  21  11   0  10  21  14  12  20  14  21  10  12  21  21  21  21  21  21  21  21  21  10  21  21  23  21  21  21  21  21  21  21  21  21  21  21  15  21  21  21  23  21  23  12  21  21  21  21  12   3  20   5  21  21  21  25  21  15  21  21  21  21  21  24  21  20  23  21  12  21  21  21  21  23  21  21  23  21  20  11   0
  -1  -1  -1  24  23  24  10  24  24  24   0  24  11  10  24  24  16  14   0  24  10  18  24  10  24  12  10  14  24  24  24  24  24  24  24  24  12  24  24  18  24  24  24  24  24  24  24  24  24  24  24  10  24  24  24  18  24  19  18  24  24  24  24  18  14  24  14  24  24  24  23  24  10  24  24  24  24  24  21  24  12  15  24  11  24  24  24  24  16  14  24  19  24  24  14   0
  -1  -1  -1  -1  -1  -1  -1  28  28  28  16  28  14  -1  28  28  24  23  23   0  16  24  27  16  28  23  18  11  28  28  28  28  28  28  28  28  23  28  28  10  28  28  28  28  28  28  28  28  28  28  28  15  28  28  28  10  28  12  24  28  28  28  28  24  23  27  23  28  28  28  15  28  15  28  28  28  28  28  12  28  12  10  28  20  28  28  28  28   8  11  28  12  28  27  23   0
  -1  11  11  11   0  11  24  11  11  11  23  11  24  24  11  11  15  18  20  11   0  14  10  23  11  20  23  25  11  11  11  11  11  11  11  11  20  11  11  27  11  11  11  11  11  11  11  11  11  11  11  24  11  11  11  27  11  27  14  11  11  11  11  14  18  10  18  11  11  11  31  11  24  11  11  11  11  11  28  11  25  26  11  23  11  11  11  11  27  25  11  27  11  10  20   0
  -1  -1  -1  -1  -1  -1  -1  -1  -1  -1  -1  -1  16  -1  21  21  -1   6  10  21  14   0  20  14  21  10  12  21  21  21  21  21  21  21  21  21  11  21  21  23  21  21  21  21  21  21  21  21  21  21  21  15  21  21  21  23  21  23  12  21  21  21  21  12   6  20   8  21  21  21  25  21  15  21  21  21  21  21  24  21  20  23  21  12  21  21  21  21  23  21  21  23  21  20  14   0
  -1  -1  -1  -1  -1  -1  -1  -1  -1  -1  -1  -1  -1  -1   0   0  -1  21  -1   0  -1  16   0  24   0  23  24  27   0   0   0   0   0   0   0   0  23   0   0  28   0   0   0   0   0   0   0   0   0   0   0  24   0   0   0  28   0  28  16   0   0   0   0  16  21  10  21   0   0   0  31   0  24   0   0   0   0   0  30   0  26  27   0  23   0   0   0   0  28  27   0  28   0  10  23   0
  -1  -1  -1  -1  -1  -1  -1  -1  -1  -1  -1  -1  -1  -1  -1  10  -1  20  -1  10  -1  15   0   0  10  21  23  26  10  10  10  10  10  10  10  10  21  10  10  28  10  10  10  10  10  10  10  10  10  10  10  24  10  10  10  28  10  28  15  10  10  10  10  15  20   0  20  10  10  10  31  10  24  10  10  10  10  10  29  10  25  27  10  23  10  10  10  10  27  26  10  27  10   0  21   0
  -1  -1  -1  -1  -1  -1  -1  -1  -1  -1  -1  -1  14  -1  28  28  24  23  23  28  16  24  27  16   0  23  18  11  28  28  28  28  28  28  28  28  23  28  28  10  28  28  28  28  28  28  28  28  28  28  28  15  28  28  28  10  28  11  24  28  28  28  28  24  23  27  23  28  28  28  15  28  15  28  28  28  28  28  12  28  12  10  28  20  28  28  28  28   7  11  28  11  28  27  23   0
  -1  -1  -1  -1  -1  -1  -1  -1  -1  -1  -1  -1  -1  -1  -1  -1  -1  -1  -1  -1  -1  -1  -1  -1  -1   0  12  20  23  23  23  23  23  23  23  23  10  23  23  23  23  23  23  23  23  23  23  23  23  23  23  14  23  23  23  23  23  23  12  23  23  23  23  12  10  21  10  23  23  23  25  23  14  23  23  23  23  23  24  23  18  21  23  11  23  23  23  23  23  20  23  23  23  21  12   0
  -1  -1  -1  -1  -1  -1  -1  -1  -1  -1  -1  -1  -1  -1  -1  -1  -1  -1  -1  -1  -1  -1  -1  -1  -1  12   0  14  24  24  24  24  24  24  24  24  12  24  24  18  24  24  24  24  24  24  24  24  24  24  24  10  24  24  24  18  24  18  18  24  24  24  24  18  14  24  14  24  24  24  23  24  10  24  24  24  24  24  21  24  12  15  24  11  24  24  24  24  16  14  24  16  24  24  12   0
  -1  -1  -1  -1  -1  -1  -1  -1  -1  -1  -1  -1  -1  -1  -1  -1  -1  -1  -1  -1  -1  -1  -1  -1  -1  12   0   0  24  24  24  24  24  24  24  24  12  24  24  20  24  24  24  24  24  24  24  24  24  24  24  11  24  24  24  20  24  20  16  24  24  24  24  16  12  23  12  24  24  24  24  24  11  24  24  24  24  24  23  24  14  16  24  10  24  24  24  24  18  15  24  19  24  23  14   0
  -1  -1  -1  -1  -1  -1  -1  -1  -1  -1  -1  -1  -1  -1  -1  -1  -1  -1  -1  -1  -1  -1  -1  -1  -1  -1  -1  -1   0  11  11  11  11  11  11  11  20  11  11  27  11  11  11  11  11  11  11  11  11  11  11  24  11  11  11  27  11  27  14  11  11  11  11  14  18  10  18  11  11  11  31  11  24  11  11  11  11  11  28  11  25  26  11  23  11  11  11  11  27  25  11  27  11  10  20   0
  -1  -1  -1  -1  -1  -1  -1  -1  -1  -1  -1  -1  -1  -1  -1  -1  -1  -1  -1  -1  -1  -1  -1  -1  -1  -1  -1  -1  18   0  18  18  18  18  18  18  15  18  18  25  18  18  18  18  18  18  18  18  18  18  18  23  18  18  18  25  18  25  14  18  18  18  18  11  14  19  14  18  18  18  28  18  23  18  18  18  18  18  27  18  24  24  18  18  18  18  18  18  25  24  18  25  18  19  15   0
  -1  -1  -1  -1  -1  -1  -1  -1  -1  -1  -1  -1  -1  -1  -1  -1  -1  -1  -1  -1  -1  -1  -1  -1  -1  -1  -1  -1  23  23   0  23  23  23  23  23  11  23  23  21  23  23  23  23  23  23  23  23  23  23  23  12  23  23  23  21  23  21  15  23  23  23  23  15  12  23  12  23  23  23  24  23  12  23  23  23  23  23  23  23  15  18  23   4  23  23  23  23  20  16  23  20  23  23  11   0
  -1  -1  -1  -1  -1  -1  -1  -1  -1  -1  -1  -1  -1  -1  -1  -1  -1  -1  -1  -1  -1  -1  -1  -1  -1  -1  -1  -1  27  27  27   0  27  27  27  27  20  27  27  12  27  27  27  27  27  27  27  27  27  27  27  12  27  27  27  12  27  13  23  27  27  27  27  23  21  26  21  27  27  27  18  27  12  27  27  27  27  27  14  27  10  10  27  16  27  27  27  27  11   6  27  13  27  26  20   0
  -1  -1  -1  -1  -1  -1  -1  -1  -1  -1  -1  -1  -1  -1  -1  -1  -1  -1  -1  -1  -1  -1  -1  -1  -1  -1  -1  -1  -1  -1  -1  -1   0  27  27  27  20  27  27  12  27  27  27  27  27  27  27  27  27  27  27  12  27  27  27  15  27  12  23  27  27  27  27  23  21  26  21  27  27  27  18  27  12  27  27  27  27  27  14  27  15  15  27  16  27  27  27  27  11  15  27  11  27  26  20   0
  -1  -1  -1  -1  -1  -1  -1  -1  -1  -1  -1  -1  -1  -1  -1  -1  -1  -1  -1  -1  -1  -1  -1  -1  -1  -1  -1  -1  -1  -1  -1  -1  -1   0  18  18  12  18  18  24  18  18  18  18  18  18  18  18  18  18  18  18  18  18  18  24  18  24  10  18  18  18  18  10  11  16  11  18  18  18  27  18  18  18  18  18  18  18  25  18  23  23  18  14  18  18  18  18  24  23  18  24  18  16  12   0
  -1  -1  -1  -1  -1  -1  -1  -1  -1  -1  -1  -1  -1  -1  -1  -1  -1  -1  -1  -1  -1  -1  -1  -1  -1  -1  -1  -1  -1  -1  -1  -1  -1  15   0  15  14  15  15  25  15  15  15  15  15  15  15  15  15  15  15  21  15  15  15  25  15  25  10  15  15  15  15  10  12  14  12  15  15  15  28  15  21  15  15  15  15  15  26  15  23  24  15  16  15  15  15  15  24  24  15  24  15  14  14   0
  -1  -1  -1  -1  -1  -1  -1  -1  -1  -1  -1  -1  -1  -1  -1  -1  -1  -1  -1  -1  -1  -1  -1  -1  -1  -1  -1  -1  -1  -1  -1  -1  -1  23  23   0  11  23  23  21  23  23  23  23  23  23  23  23  23  23  23  12  23  23  23  21  23  21  15  23  23  23  23  15  12  23  12  23  23  23  24  23  12  23  23  23  23  23  23  23  15  18  23   4  23  23  23  23  20  16  23  20  23  23  11   0
  -1  -1  -1  -1  -1  -1  -1  -1  -1  -1  -1  -1  -1  -1  -1  -1  -1  -1  -1  -1  -1  -1  -1  -1  -1  -1  -1  -1  -1  -1  -1  -1  -1  23  23  23   0  23  23  23  23  23  23  23  23  23  23  23  23  23  23  14  23  23  23  23  23  23  12  23  23  23  23  12  10  21  10  23  23  23  25  23  14  23  23  23  23  23  24  23  18  21  23  11  23  23  23  23  23  20  23  23  23  21  14   0
  -1  -1  -1  -1  -1  -1  -1  -1  -1  -1  -1  -1  -1  -1  -1  -1  -1  -1  -1  -1  -1  -1  -1  -1  -1  -1  -1  -1  -1  -1  -1  -1  -1  -1  24  24  12   0  24  18  24  24  24  24  24  24  24  24  24  24  24  10  24  24  24  18  24  18  18  24  24  24  24  18  14  24  14  24  24  24  23  24  10  24  24  24  24  24  21  24  12  15  24  11  24  24  24  24  16  14  24  16  24  24  12   0
  -1  -1  -1  -1  -1  -1  -1  -1  -1  -1  -1  -1  -1  -1  -1  -1  -1  -1  -1  -1  -1  -1  -1  -1  -1  -1  -1  -1  -1  -1  -1  -1  -1  -1  -1  28  23  28   0   4  28  28  28  28  28  28  28  28  28  28  28  16  28  28  28  10  28   9  24  28  28  28  28  24  23  28  23  28  28  28  14  28  16  28  28  28  28  28  11  28  12  11  28  21  28  28  28  28  10  12  28  10  28  28  23   0
  -1  -1  -1  -1  -1  -1  -1  -1  -1  -1  -1  -1  -1  -1  -1  -1  -1  -1  -1  -1  -1  -1  -1  -1  -1  -1  -1  -1  -1  -1  -1  -1  -1  -1  -1  -1  25  33  33   0  33  33  33  33  33  33  33  33  33  33  33  23  33  33  33  15  33  19  28  33  33  33  33  28  26  31  26  33  33  33  10  33  23  33  33  33  33  33  15  33  21  18  33  24  33  33  33  33  16  20  33  19  33  31  25   0
  -1  -1  -1  -1  -1  -1  -1  -1  -1  -1  -1  -1  -1  -1  -1  -1  -1  -1  -1  -1  -1  -1  -1  -1  -1  -1  -1  -1  -1  -1  -1  -1  -1  -1  -1  -1  -1  29  29  10   0  29  29  29  29  29  29  29  29  29  29  18  29  29  29  10  29  13  25  29  29  29  29  25  24  28  24  29  29  29  12  29  18  29  29  29  29  29  10  29  14  12  29  23  29  29  29  29  11  12  29  13  29  28  23   0
  -1  -1  -1  -1  -1  -1  -1  -1  -1  -1  -1  -1  -1  -1  -1  -1  -1  -1  -1  -1  -1  -1  -1  -1  -1  -1  -1  -1  -1  -1  -1  -1  -1  -1  -1  -1  -1  29  29  10  29   0  29  29  29  29  29  29  29  29  29  18  29  29  29  10  29  10  25  29  29  29  29  25  24  28  24  29  29  29  12  29  18  29  29  29  29  29  10  29  14  12  29  23  29  29  29  29  11  12  29  11  29  28  23   0
  -1  -1  -1  -1  -1  -1  -1  -1  -1  -1  -1  -1  -1  -1  -1  -1  -1  -1  -1  -1  -1  -1  -1  -1  -1  -1  -1  -1  -1  -1  -1  -1  -1  -1  -1  -1  -1  -1  18  24  18  18   0  18  18  18  18  18  18  18  18  18  18  18  18  24  18  24  10  18  18  18  18  10  11  16  11  18  18  18  27  18  18  18  18  18  18  18  25  18  23  23  18  14  18  18  18  18  24  23  18  24  18  16  12   0
  -1  -1  -1  -1  -1  -1  -1  -1  -1  -1  -1  -1  -1  -1  -1  -1  -1  -1  -1  -1  -1  -1  -1  -1  -1  -1  -1  -1  -1  -1  -1  -1  -1  -1  -1  -1  -1  -1  -1  10  29  29  29   0  29  29  29  29  29  29  29  18  29  29  29  15  29  10  25  29  29  29  29  25  24  28  24  29  29  29  15  29  18  29  29  29  29  29  10  29  15  15  29  23  29  29  29  29  11  15  29  11  29  28  23   0
  -1  -1  -1  -1  -1  -1  -1  -1  -1  -1  -1  -1  -1  -1  -1  -1  -1  -1  -1  -1  -1  -1  -1  -1  -1  -1  -1  -1  -1  -1  -1  -1  -1  -1  -1  -1  -1  -1  -1  23  23  23  23  23   0  23  23  23  23  23  23  14  23  23  23  23  23  23  12  23  23  23  23  12  10  21  10  23  23  23  25  23  14  23  23  23  23  23  24  23  18  21  23  11  23  23  23  23  23  20  23  23  23  21   8   0
  -1  -1  -1  -1  -1  -1  -1  -1  -1  -1  -1  -1  -1  -1  -1  -1  -1  -1  -1  -1  -1  -1  -1  -1  -1  -1  -1  -1  -1  -1  -1  -1  -1  -1  -1  -1  -1  -1  -1  -1  21  21  21  21  21   0  21  21  21  21  21  15  21  21  21  23  21  23  12  21  21  21  21  12   0  20   1  21  21  21  25  21  15  21  21  21  21  21  24  21  20  23  21  12  21  21  21  21  23  21  21  23  21  20  10   0
  -1  -1  -1  -1  -1  -1  -1  -1  -1  -1  -1  -1  -1  -1  -1  -1  -1  -1  -1  -1  -1  -1  -1  -1  -1  -1  -1  -1  -1  -1  -1  -1  -1  -1  -1  -1  -1  -1  -1  -1  -1  23  23  23  23  23   0  23  23  23  23  12  23  23  23  21  23  21  15  23  23  23  23  15  12  23  12  23  23  23  24  23  12  23  23  23  23  23  23  23  15  18  23   3  23  23  23  23  20  16  23  20  23  23  11   0
  -1  -1  -1  -1  -1  -1  -1  -1  -1  -1  -1  -1  -1  -1  -1  -1  -1  -1  -1  -1  -1  -1  -1  -1  -1  -1  -1  -1  -1  -1  -1  -1  -1  -1  -1  -1  -1  -1  -1  -1  -1  -1  -1  -1  23  23  23   0  23  23  23  12  23  23  23  21  23  21  15  23  23  23  23  15  12  23  12  23  23  23  24  23  12  23  23  23  23  23  23  23  15  18  23   3  23  23  23  23  20  16  23  20  23  23  11   0
  -1  -1  -1  -1  -1  -1  -1  -1  -1  -1  -1  -1  -1  -1  -1  -1  -1  -1  -1  -1  -1  -1  -1  -1  -1  -1  -1  -1  -1  -1  -1  -1  -1  -1  -1  -1  -1  -1  -1  -1  -1  -1  -1  -1  -1  28  28  28   0  28  28  16  28  28  28   6  28  13  24  28  28  28  28  24  23  28  23  28  28  28  14  28  16  28  28  28  28  28  11  28  12  11  28  21  28  28  28  28  10  12  28  13  28  28  23   0
  -1  -1  -1  -1  -1  -1  -1  -1  -1  -1  -1  -1  -1  -1  -1  -1  -1  -1  -1  -1  -1  -1  -1  -1  -1  -1  -1  -1  -1  -1  -1  -1  -1  -1  -1  -1  -1  -1  -1  -1  -1  -1  -1  -1  -1  -1  -1  -1  -1   0  24   6  24  24  24  16  24  16  20  24  24  24  24  20  15  24  15  24  24  24  23  24   2  24  24  24  24  24  20  24  12  14  24  12  24  24  24  24  15  12  24  15  24  24  14   0
  -1  -1  -1  -1  -1  -1  -1  -1  -1  -1  -1  -1  -1  -1  -1  -1  -1  -1  -1  -1  -1  -1  -1  -1  -1  -1  -1  -1  -1  -1  -1  -1  -1  -1  -1  -1  -1  -1  -1  -1  -1  -1  -1  -1  -1  -1  -1  -1  -1  25   0  10  25  25  25  15  25  15  21  25  25  25  25  21  16  24  16  25  25  25  23  25  10  25  25  25  25  25  18  25  11  12  25  12  25  25  25  25  14  12  25  14  25  24  15   0
  -1  -1  -1  -1  -1  -1  -1  -1  -1  -1  -1  -1  -1  -1  -1  -1  -1  -1  -1  -1  -1  -1  -1  -1  -1  -1  -1  -1  -1  -1  -1  -1  -1  -1  -1  -1  -1  -1  -1  -1  -1  -1  -1  -1  -1  -1  -1  -1  -1  24  24   0  24  24  24  16  24  18  20  24  24  24  24  20  15  24  15  24  24  24  23  24   7  24  24  24  24  24  20  24  12  14  24  12  24  24  24  24  15  12  24  18  24  24  14   0
  -1  -1  -1  -1  -1  -1  -1  -1  -1  -1  -1  -1  -1  -1  -1  -1  -1  -1  -1  -1  -1  -1  -1  -1  -1  -1  -1  -1  -1  -1  -1  -1  -1  -1  -1  -1  -1  -1  -1  -1  -1  -1  -1  -1  -1  -1  -1  -1  -1  24  24   6   0  24  24  16  24  16  20  24  24  24  24  20  15  24  15  24  24  24  23  24   2  24  24  24  24  24  20  24  12  14  24  12  24  24  24  24  15  12  24  15  24  24  14   0
  -1  -1  -1  -1  -1  -1  -1  -1  -1  -1  -1  -1  -1  -1  -1  -1  -1  -1  -1  -1  -1  -1  -1  -1  -1  -1  -1  -1  -1  -1  -1  -1  -1  -1  -1  -1  -1  -1  -1  -1  -1  -1  -1  -1  -1  -1  -1  -1  -1  24  24   6  24   0  24  16  24  16  20  24  24  24  24  20  15  24  15  24  24  24  23  24   2  24  24  24  24  24  20  24  12  14  24  12  24  24  24  24  15  12  24  15  24  24  14   0
  -1  -1  -1  -1  -1  -1  -1  -1  -1  -1  -1  -1  -1  -1  -1  -1  -1  -1  -1  -1  -1  -1  -1  -1  -1  -1  -1  -1  -1  -1  -1  -1  -1  -1  -1  -1  -1  -1  -1  -1  -1  -1  -1  -1  -1  -1  -1  -1  -1  23  23  14  23  23   0  23  23  23  12  23  23  23  23  12  10  21  10  23  23  23  25  23  14  23  23  23  23  23  24  23  18  21  23  11  23  23  23  23  23  20  23  23  23  21   2   0
  -1  -1  -1  -1  -1  -1  -1  -1  -1  -1  -1  -1  -1  -1  -1  -1  -1  -1  -1  -1  -1  -1  -1  -1  -1  -1  -1  -1  -1  -1  -1  -1  -1  -1  -1  -1  -1  -1  -1  -1  -1  -1  -1  -1  -1  -1  -1  -1  -1  -1  -1  -1  -1  -1   0   0   0  28  16   0   0   0   0  16  21  10  21   0   0   0  31   0  24   0   0   0   0   0  30   0  26  27   0  23   0   0   0   0  28  27   0  28   0  10  23   0
  -1  -1  -1  -1  -1  -1  -1  -1  -1  -1  -1  -1  -1  -1  -1  -1  -1  -1  -1  -1  -1  -1  -1  -1  -1  -1  -1  -1  -1  -1  -1  -1  -1  -1  -1  -1  -1  -1  -1  -1  -1  -1  -1  -1  -1  -1  -1  -1  -1  -1  -1  -1  -1  -1  28  19   0   0  24  28  28  28  28  24  23  28  23  28  28  28  19  28  16  28  28  28  28  28  11  28  19  19  28  21  28  28  28  28  10  19  28  10  28  28  23   0
  -1  -1  -1  -1  -1  -1  -1  -1  -1  -1  -1  -1  -1  -1  -1  -1  -1  -1  -1  -1  -1  -1  -1  -1  -1  -1  -1  -1  -1  -1  -1  -1  -1  -1  -1  -1  -1  -1  -1  -1  -1  -1  -1  -1  -1  -1  -1  -1  -1  -1  -1  -1  -1  -1  28   0  28   0  24  28  28  28  28  24  23  28  23  28  28  28  14  28  16  28  28  28  28  28  15  28  12  11  28  21  28  28  28  28  15  12  28  19  28  28  23   0
  -1  -1  -1  -1  -1  -1  -1  -1  -1  -1  -1  -1  -1  -1  -1  -1  -1  -1  -1  -1  -1  -1  -1  -1  -1  -1  -1  -1  -1  -1  -1  -1  -1  -1  -1  -1  -1  -1  -1  -1  -1  -1  -1  -1  -1  -1  -1  -1  -1  -1  -1  -1  -1  -1  16  24  16  24   0  16  16  16  16   6  12  15  12  16  16  16  27  16  20  16  16  16  16  16  25  16  23  24  16  15  16  16  16  16  24  23  16  24  16  15  12   0
  -1  -1  -1  -1  -1  -1  -1  -1  -1  -1  -1  -1  -1  -1  -1  -1  -1  -1  -1  -1  -1  -1  -1  -1  -1  -1  -1  -1  -1  -1  -1  -1  -1  -1  -1  -1  -1  -1  -1  -1  -1  -1  -1  -1  -1  -1  -1  -1  -1  -1  -1  -1  -1  -1  28  19  28   0  24   0  28  28  28  24  23  28  23  28  28  28  19  28  16  28  28  28  28  28  11  28  19  19  28  21  28  28  28  28  10  19  28  10  28  28  23   0
  -1  -1  -1  -1  -1  -1  -1  -1  -1  -1  -1  -1  -1  -1  -1  -1  -1  -1  -1  -1  -1  -1  -1  -1  -1  -1  -1  -1  -1  -1  -1  -1  -1  -1  -1  -1  -1  -1  -1  -1  -1  -1  -1  -1  -1  -1  -1  -1  -1  -1  -1  -1  -1  -1  -1  19  29  10  25  29   0  29  29  25  24  28  24  29  29  29  19  29  18  29  29  29  29  29  10  29  19  19  29  23  29  29  29  29  11  19  29  11  29  28  23   0
  -1  -1  -1  -1  -1  -1  -1  -1  -1  -1  -1  -1  -1  -1  -1  -1  -1  -1  -1  -1  -1  -1  -1  -1  -1  -1  -1  -1  -1  -1  -1  -1  -1  -1  -1  -1  -1  -1  -1  -1  -1  -1  -1  -1  -1  -1  -1  -1  -1  -1  -1  -1  -1  -1  -1  19  29  10  25  29  29   0  29  25  24  28  24  29  29  29  19  29  18  29  29  29  29  29  10  29  19  19  29  23  29  29  29  29  11  19  29  11  29  28  23   0
  -1  -1  -1  -1  -1  -1  -1  -1  -1  -1  -1  -1  -1  -1  -1  -1  -1  -1  -1  -1  -1  -1  -1  -1  -1  -1  -1  -1  -1  -1  -1  -1  -1  -1  -1  -1  -1  -1  -1  -1  -1  -1  -1  -1  -1  -1  -1  -1  -1  -1  -1  -1  -1  -1  -1  19  28  10  24  28  28  28   0  24  23  27  23  28  28  28  19  28  15  28  28  28  28  28  12  28  19  19  28  20  28  28  28  28   4  19  28   0  28  27  23   0
  -1  -1  -1  -1  -1  -1  -1  -1  -1  -1  -1  -1  -1  -1  -1  -1  -1  -1  -1  -1  -1  -1  -1  -1  -1  -1  -1  -1  -1  -1  -1  -1  -1  -1  -1  -1  -1  -1  -1  -1  -1  -1  -1  -1  -1  -1  -1  -1  -1  -1  -1  -1  -1  -1  -1  -1  23  23  12  23  23  23  23   0  10  21  10  23  23  23  25  23  14  23  23  23  23  23  24  23  18  21  23  11  23  23  23  23  23  20  23  23  23  21  12   0
  -1  -1  -1  -1  -1  -1  -1  -1  -1  -1  -1  -1  -1  -1  -1  -1  -1  -1  -1  -1  -1  -1  -1  -1  -1  -1  -1  -1  -1  -1  -1  -1  -1  -1  -1  -1  -1  -1  -1  -1  -1  -1  -1  -1  -1  -1  -1  -1  -1  -1  -1  -1  -1  -1  -1  -1  -1  -1  -1  -1  -1  23  23  12   0  21  10  23  23  23  25  23  14  23  23  23  23  23  24  23  18  21  23  11  23  23  23  23  23  20  23  23  23  21  12   0
  -1  -1  -1  -1  -1  -1  -1  -1  -1  -1  -1  -1  -1  -1  -1  -1  -1  -1  -1  -1  -1  -1  -1  -1  -1  -1  -1  -1  -1  -1  -1  -1  -1  -1  -1  -1  -1  -1  -1  -1  -1  -1  -1  -1  -1  -1  -1  -1  -1  -1  -1  -1  -1  -1  -1  -1  -1  -1  -1  -1  -1  -1   0  16  21   0  21   0   0   0  31   0  24   0   0   0   0   0  30   0  26  27   0  23   0   0   0   0  28  27   0  28   0  10  23   0
  -1  -1  -1  -1  -1  -1  -1  -1  -1  -1  -1  -1  -1  -1  -1  -1  -1  -1  -1  -1  -1  -1  -1  -1  -1  -1  -1  -1  -1  -1  -1  -1  -1  -1  -1  -1  -1  -1  -1  -1  -1  -1  -1  -1  -1  -1  -1  -1  -1  -1  -1  -1  -1  -1  -1  -1  -1  -1  -1  -1  -1  -1  -1  15  20   0   0  10  10  10  31  10  24  10  10  10  10  10  29  10  25  27  10  23  10  10  10  10  27  26  10  27  10   0  21   0
  -1  -1  -1  -1  -1  -1  -1  -1  -1  -1  -1  -1  -1  -1  -1  -1  -1  -1  -1  -1  -1  -1  -1  -1  -1  -1  -1  -1  -1  -1  -1  -1  -1  -1  -1  -1  -1  -1  -1  -1  -1  -1  -1  -1  -1  -1  -1  -1  -1  -1  -1  -1  -1  -1  -1  -1  -1  -1  -1  -1  -1  -1  -1  -1  12  15  12   0  16  16  27  16  20  16  16  16  16  16  25  16  23  24  16  15  16  16  16  16  24  23  16  24  16  15  12   0
  -1  -1  -1  -1  -1  -1  -1  -1  -1  -1  -1  -1  -1  -1  -1  -1  -1  -1  -1  -1  -1  -1  -1  -1  -1  -1  -1  -1  -1  -1  -1  -1  -1  -1  -1  -1  -1  -1  -1  -1  -1  -1  -1  -1  -1  -1  -1  -1  -1  -1  -1  -1  -1  -1  -1  -1  -1  -1  -1  -1  -1  -1  -1  -1  15  24  15  24   0  24  23  24   2  24  24  24  24  24  20  24  12  14  24  12  24  24  24  24  15  12  24  15  24  24  14   0
  -1  -1  -1  -1  -1  -1  -1  -1  -1  -1  -1  -1  -1  -1  -1  -1  -1  -1  -1  -1  -1  -1  -1  -1  -1  -1  -1  -1  -1  -1  -1  -1  -1  -1  -1  -1  -1  -1  -1  -1  -1  -1  -1  -1  -1  -1  -1  -1  -1  -1  -1  -1  -1  -1  -1  -1  -1  -1  -1  -1  -1  -1  -1  -1  -1  19  21  18  18   0  31  18  24  18  18  18  18  18  30  18  26  27  18  23  18  18  18  18  28  27  18  28  18  19  23   0
  -1  -1  -1  -1  -1  -1  -1  -1  -1  -1  -1  -1  -1  -1  -1  -1  -1  -1  -1  -1  -1  -1  -1  -1  -1  -1  -1  -1  -1  -1  -1  -1  -1  -1  -1  -1  -1  -1  -1  -1  -1  -1  -1  -1  -1  -1  -1  -1  -1  -1  -1  -1  -1  -1  -1  -1  -1  -1  -1  -1  -1  -1  -1  -1  -1  10  21   0   0   0   0   0  24   0   0   0   0   0  30   0  26  27   0  23   0   0   0   0  28  27   0  28   0  10  23   0
  -1  -1  -1  -1  -1  -1  -1  -1  -1  -1  -1  -1  -1  -1  -1  -1  -1  -1  -1  -1  -1  -1  -1  -1  -1  -1  -1  -1  -1  -1  -1  -1  -1  -1  -1  -1  -1  -1  -1  -1  -1  -1  -1  -1  -1  -1  -1  -1  -1  -1  -1  -1  -1  -1  -1  -1  -1  -1  -1  -1  -1  -1  -1  -1  -1  -1  15  24  24  24  23   0   1  24  24  24  24  24  20  24  12  14  24  12  24  24  24  24  15  12  24  15  24  24  14   0
  -1  -1  -1  -1  -1  -1  -1  -1  -1  -1  -1  -1  -1  -1  -1  -1  -1  -1  -1  -1  -1  -1  -1  -1  -1  -1  -1  -1  -1  -1  -1  -1  -1  -1  -1  -1  -1  -1  -1  -1  -1  -1  -1  -1  -1  -1  -1  -1  -1  -1  -1  -1  -1  -1  -1  -1  -1  -1  -1  -1  -1  -1  -1  -1  -1  -1  12  15  15  15  28  15   0  15  15  15  15  15  26  15  23  24  15  16  15  15  15  15  24  24  15  24  15  14  14   0
  -1  -1  -1  -1  -1  -1  -1  -1  -1  -1  -1  -1  -1  -1  -1  -1  -1  -1  -1  -1  -1  -1  -1  -1  -1  -1  -1  -1  -1  -1  -1  -1  -1  -1  -1  -1  -1  -1  -1  -1  -1  -1  -1  -1  -1  -1  -1  -1  -1  -1  -1  -1  -1  -1  -1  -1  -1  -1  -1  -1  -1  -1  -1  -1  -1  -1  -1  25  25  25  23  25  10   0  25  25  25  25  18  25  11  12  25  12  25  25  25  25  14  12  25  14  25  24  15   0
  -1  -1  -1  -1  -1  -1  -1  -1  -1  -1  -1  -1  -1  -1  -1  -1  -1  -1  -1  -1  -1  -1  -1  -1  -1  -1  -1  -1  -1  -1  -1  -1  -1  -1  -1  -1  -1  -1  -1  -1  -1  -1  -1  -1  -1  -1  -1  -1  -1  -1  -1  -1  -1  -1  -1  -1  -1  -1  -1  -1  -1  -1  -1  -1  -1  -1  -1  24  24  24  23  24   3  24   0  24  24  24  20  24  12  14  24  12  24  24  24  24  15  12  24  15  24  24  14   0
  -1  -1  -1  -1  -1  -1  -1  -1  -1  -1  -1  -1  -1  -1  -1  -1  -1  -1  -1  -1  -1  -1  -1  -1  -1  -1  -1  -1  -1  -1  -1  -1  -1  -1  -1  -1  -1  -1  -1  -1  -1  -1  -1  -1  -1  -1  -1  -1  -1  -1  -1  -1  -1  -1  -1  -1  -1  -1  -1  -1  -1  -1  -1  -1  -1  -1  -1  18  18  18  28  18  23  18  18   0  18  18  27  18  24  24  18  18  18  18  18  18  25  24  18  25  18  19  15   0
  -1  -1  -1  -1  -1  -1  -1  -1  -1  -1  -1  -1  -1  -1  -1  -1  -1  -1  -1  -1  -1  -1  -1  -1  -1  -1  -1  -1  -1  -1  -1  -1  -1  -1  -1  -1  -1  -1  -1  -1  -1  -1  -1  -1  -1  -1  -1  -1  -1  -1  -1  -1  -1  -1  -1  -1  -1  -1  -1  -1  -1  -1  -1  -1  -1  -1  -1  -1  18  18  28  18  21  18  18  18   0  18  26  18  23  24  18  16  18  18  18  18  24  24  18  24  18  19  14   0
  -1  -1  -1  -1  -1  -1  -1  -1  -1  -1  -1  -1  -1  -1  -1  -1  -1  -1  -1  -1  -1  -1  -1  -1  -1  -1  -1  -1  -1  -1  -1  -1  -1  -1  -1  -1  -1  -1  -1  -1  -1  -1  -1  -1  -1  -1  -1  -1  -1  -1  -1  -1  -1  -1  -1  -1  -1  -1  -1  -1  -1  -1  -1  -1  -1  -1  -1  -1  -1  24  23  24   5  24  24  24  24   0  20  24  15  15  24  12  24  24  24  24  15  15  24  15  24  24  14   0
  -1  -1  -1  -1  -1  -1  -1  -1  -1  -1  -1  -1  -1  -1  -1  -1  -1  -1  -1  -1  -1  -1  -1  -1  -1  -1  -1  -1  -1  -1  -1  -1  -1  -1  -1  -1  -1  -1  -1  -1  -1  -1  -1  -1  -1  -1  -1  -1  -1  -1  -1  -1  -1  -1  -1  -1  -1  -1  -1  -1  -1  -1  -1  -1  -1  -1  -1  31  31  31   0  31  23  31  31  31  31  31   0  31  20  16  31  24  31  31  31  31  15  18  31  19  31  31  25   0
  -1  -1  -1  -1  -1  -1  -1  -1  -1  -1  -1  -1  -1  -1  -1  -1  -1  -1  -1  -1  -1  -1  -1  -1  -1  -1  -1  -1  -1  -1  -1  -1  -1  -1  -1  -1  -1  -1  -1  -1  -1  -1  -1  -1  -1  -1  -1  -1  -1  -1  -1  -1  -1  -1  -1  -1  -1  -1  -1  -1  -1  -1  -1  -1  -1  -1  -1  -1  -1  -1  -1  24   8  24  24  24  24  24  20   0  17  17  24  12  24  24  24  24  15  17  24  15  24  24  14   0
  -1  -1  -1  -1  -1  -1  -1  -1  -1  -1  -1  -1  -1  -1  -1  -1  -1  -1  -1  -1  -1  -1  -1  -1  -1  -1  -1  -1  -1  -1  -1  -1  -1  -1  -1  -1  -1  -1  -1  -1  -1  -1  -1  -1  -1  -1  -1  -1  -1  -1  -1  -1  -1  -1  -1  -1  -1  -1  -1  -1  -1  -1  -1  -1  -1  -1  -1  -1  -1  -1  -1  -1  -1  30  30  30  30  30   0  30   0  15  30  23  30  30  30  30  12  15  30  12  30  29  24   0
  -1  -1  -1  -1  -1  -1  -1  -1  -1  -1  -1  -1  -1  -1  -1  -1  -1  -1  -1  -1  -1  -1  -1  -1  -1  -1  -1  -1  -1  -1  -1  -1  -1  -1  -1  -1  -1  -1  -1  -1  -1  -1  -1  -1  -1  -1  -1  -1  -1  -1  -1  -1  -1  -1  -1  -1  -1  -1  -1  -1  -1  -1  -1  -1  -1  -1  -1  -1  -1  -1  -1  -1  -1   0   0   0   0   0  30   0  26   0   0  23   0   0   0   0  28  27   0  28   0  10  23   0
  -1  -1  -1  -1  -1  -1  -1  -1  -1  -1  -1  -1  -1  -1  -1  -1  -1  -1  -1  -1  -1  -1  -1  -1  -1  -1  -1  -1  -1  -1  -1  -1  -1  -1  -1  -1  -1  -1  -1  -1  -1  -1  -1  -1  -1  -1  -1  -1  -1  -1  -1  -1  -1  -1  -1  -1  -1  -1  -1  -1  -1  -1  -1  -1  -1  -1  -1  -1  -1  -1  -1  -1  -1  -1  16  16  16  16  -1  16  23  24   0  15  16  16  16  16  24  23  16  24  16  15  12   0
  -1  -1  -1  -1  -1  -1  -1  -1  -1  -1  -1  -1  -1  -1  -1  -1  -1  -1  -1  -1  -1  -1  -1  -1  -1  -1  -1  -1  -1  -1  -1  -1  -1  -1  -1  -1  -1  -1  -1  -1  -1  -1  -1  -1  -1  -1  -1  -1  -1  -1  -1  -1  -1  -1  -1  -1  -1  -1  -1  -1  -1  -1  -1  -1  -1  -1  -1  -1  -1  -1  -1  -1  -1  -1  26  26  26  26  -1  26   0  11  26   0  26  26  26  26  15  10  26  19  26  25  18   0
  -1  -1  -1  -1  -1  -1  -1  -1  -1  -1  -1  -1  -1  -1  -1  -1  -1  -1  -1  -1  -1  -1  -1  -1  -1  -1  -1  -1  -1  -1  -1  -1  -1  -1  -1  -1  -1  -1  -1  -1  -1  -1  -1  -1  -1  -1  -1  -1  -1  -1  -1  -1  -1  -1  -1  -1  -1  -1  -1  -1  -1  -1  -1  -1  -1  -1  -1  -1  -1  -1  -1  -1  -1  -1  -1  24  24  24  -1  24  19  19  24  12   0  24  24  24  15  19  24  15  24  24  14   0
  -1  -1  -1  -1  -1  -1  -1  -1  -1  -1  -1  -1  -1  -1  -1  -1  -1  -1  -1  -1  -1  -1  -1  -1  -1  -1  -1  -1  -1  -1  -1  -1  -1  -1  -1  -1  -1  -1  -1  -1  -1  -1  -1  -1  -1  -1  -1  -1  -1  -1  -1  -1  -1  -1  -1  -1  -1  -1  -1  -1  -1  -1  -1  -1  -1  -1  -1  -1  -1  -1  -1  -1  -1  -1  -1  -1  -1  24  -1  24  18  18  24  12  24   0  24  24  15  18  24  15  24  24  14   0
  -1  -1  -1  -1  -1  -1  -1  -1  -1  -1  -1  -1  -1  -1  -1  -1  -1  -1  -1  -1  -1  -1  -1  -1  -1  -1  -1  -1  -1  -1  -1  -1  -1  -1  -1  -1  -1  -1  -1  -1  -1  -1  -1  -1  -1  -1  -1  -1  -1  -1  -1  -1  -1  -1  -1  -1  -1  -1  -1  -1  -1  -1  -1  -1  -1  -1  -1  -1  -1  -1  -1  -1  -1  -1  -1  -1  -1  30  -1  30  15  12  30  23  30  30   0  30  12  14  30  12  30  29  24   0
  -1  -1  -1  -1  -1  -1  -1  -1  -1  -1  -1  -1  -1  -1  -1  -1  -1  -1  -1  -1  -1  -1  -1  -1  -1  -1  -1  -1  -1  -1  -1  -1  -1  -1  -1  -1  -1  -1  -1  -1  -1  -1  -1  -1  -1  -1  -1  -1  -1  -1  -1  -1  -1  -1  -1  -1  -1  -1  -1  -1  -1  -1  -1  -1  -1  -1  -1  -1  -1  -1  -1  -1  -1  -1  -1  -1  -1  -1  -1  31  16  14  31  23  31  31  31   0  15  15  31  19  31  30  24   0
  -1  -1  -1  -1  -1  -1  -1  -1  -1  -1  -1  -1  -1  -1  -1  -1  -1  -1  -1  -1  -1  -1  -1  -1  -1  -1  -1  -1  -1  -1  -1  -1  -1  -1  -1  -1  -1  -1  -1  -1  -1  -1  -1  -1  -1  -1  -1  -1  -1  -1  -1  -1  -1  -1  -1  -1  -1  -1  -1  -1  -1  -1  -1  -1  -1  -1  -1  -1  -1  -1  -1  -1  -1  -1  -1  27  27  27  -1  27  11   0  27  18  27  27  27  27   0  10  27  19  27  27  21   0
  -1  -1  -1  -1  -1  -1  -1  -1  -1  -1  -1  -1  -1  -1  -1  -1  -1  -1  -1  -1  -1  -1  -1  -1  -1  -1  -1  -1  -1  -1  -1  -1  -1  -1  -1  -1  -1  -1  -1  -1  -1  -1  -1  -1  -1  -1  -1  -1  -1  -1  -1  -1  -1  -1  -1  -1  -1  -1  -1  -1  -1  -1  -1  -1  -1  -1  -1  -1  -1  -1  -1  -1  -1   0   0   0   0   0  30   0  26  27   0  23   0   0   0   0  28   0   0  28   0  10  23   0
  -1  -1  -1  -1  -1  -1  -1  -1  -1  -1  -1  -1  -1  -1  -1  -1  -1  -1  -1  -1  -1  -1  -1  -1  -1  -1  -1  -1  -1  -1  -1  -1  -1  -1  -1  -1  -1  -1  -1  -1  -1  -1  -1  -1  -1  -1  -1  -1  -1  -1  -1  -1  -1  -1  -1  -1  -1  -1  -1  -1  -1  -1  -1  -1  -1  -1  -1  -1  -1  -1  -1  -1  -1  -1  -1  -1  -1  -1  -1  -1  10  10  27  16  27  27  27  27  11   6   0  13  27  26  20   0
  -1  -1  -1  -1  -1  -1  -1  -1  -1  -1  -1  -1  -1  -1  -1  -1  -1  -1  -1  -1  -1  -1  -1  -1  -1  -1  -1  -1  -1  -1  -1  -1  -1  -1  -1  -1  -1  -1  -1  -1  -1  -1  -1  -1  -1  -1  -1  -1  -1  -1  -1  -1  -1  -1  -1  -1  -1  -1  -1  -1  -1  -1  -1  -1  -1  -1  -1  -1  -1  -1  -1  -1  -1  -1  -1  -1  -1  -1  -1  -1  -1  -1  -1  -1  27  27  27  27  15  -1  27   0  27  26  20   0
  -1  -1  -1  -1  -1  -1  -1  -1  -1  -1  -1  -1  -1  -1  -1  -1  -1  -1  -1  -1  -1  -1  -1  -1  -1  -1  -1  -1  -1  -1  -1  -1  -1  -1  -1  -1  -1  -1  -1  -1  -1  -1  -1  -1  -1  -1  -1  -1  -1  -1  -1  -1  -1  -1  -1  -1  -1  -1  -1  -1  -1  -1  -1  -1  -1  -1  -1  -1  -1  -1  -1  -1  -1  -1  -1  -1  -1  -1  -1  -1  -1  -1  -1  -1  -1  18  18  18  -1  -1  18  24   0  19  12   0
  -1  -1  -1  -1  -1  -1  -1  -1  -1  -1  -1  -1  -1  -1  -1  -1  -1  -1  -1  -1  -1  -1  -1  -1  -1  -1  -1  -1  -1  -1  -1  -1  -1  -1  -1  -1  -1  -1  -1  -1  -1  -1  -1  -1  -1  -1  -1  -1  -1  -1  -1  -1  -1  -1  -1  -1  -1  -1  -1  -1  -1  -1  -1  -1  -1  -1  -1  -1  -1  -1  -1  -1  -1  -1  -1  -1  -1  -1  -1  -1  -1  -1  -1  -1  -1  -1   0   0  -1  -1   0  28   0   0  23   0
  -1  -1  -1  -1  -1  -1  -1  -1  -1  -1  -1  -1  -1  -1  -1  -1  -1  -1  -1  -1  -1  -1  -1  -1  -1  -1  -1  -1  -1  -1  -1  -1  -1  -1  -1  -1  -1  -1  -1  -1  -1  -1  -1  -1  -1  -1  -1  -1  -1  -1  -1  -1  -1  -1  -1  -1  -1  -1  -1  -1  -1  -1  -1  -1  -1  -1  -1  -1  -1  -1  -1  -1  -1  -1  -1  -1  -1  -1  -1  -1  -1  -1  -1  -1  -1  -1  -1  10  -1  -1  10  27  10   0   0   0
  -1  -1  -1  -1  -1  -1  -1  -1  -1  -1  -1  -1  -1  -1  -1  -1  -1  -1  -1  -1  -1  -1  -1  -1  -1  -1  -1  -1  -1  -1  -1  -1  -1  -1  -1  -1  -1  -1  -1  -1  -1  -1  -1  -1  -1  -1  -1  -1  -1  -1  -1  -1  -1  -1  -1  -1  -1  -1  -1  -1  -1  -1  -1  -1  -1  -1  -1  -1  -1  -1  -1  -1  -1  -1  -1  -1  -1  -1  -1  -1  -1  -1  -1  -1  -1  -1  -1  -1  -1  -1  -1  -1  -1  -1  -1   0
